Assets/LKHProbs~/skull.75.tsp
NAME : GeneratedProblem
COMMENT : SVGCrosshatch
TYPE : TSP
DIMENSION : 30
EDGE_WEIGHT_TYPE : EUC_2D
NODE_COORD_SECTION
1 4500 1800
2 4500 1900
3 4500 2000
4 4500 2100
5 4600 1800
6 4600 1900
7 4600 2000
8 4600 2100
9 4600 2200
10 4600 2300
11 4700 1600
12 4700 1700
13 4700 1800
14 4700 1900
15 4700 2000
16 4700 2100
17 4800 1600
18 4800 1700
19 4800 1800
20 4800 1900
21 4800 2000
22 4800 2100
23 5200 1600
24 5200 1700
25 5200 1800
26 5200 1900
27 5300 1600
28 5300 1700
29 5300 1800
30 5300 1900
EOF
